NAME : xpr2308
COMMENT : Bonn VLSI data set with 2308 points
COMMENT : Uni Bonn, Research Institute for Discrete Math
COMMENT : Contributed by Andre Rohe
TYPE : TSP
DIMENSION : 2308
EDGE_WEIGHT_TYPE : EUC_2D
NODE_COORD_SECTION
1 0 101
2 0 106
3 0 11
4 0 111
5 0 116
6 0 121
7 0 122
8 0 124
9 0 126
10 0 128
11 0 129
12 0 130
13 0 131
14 0 132
15 0 136
16 0 138
17 0 141
18 0 146
19 0 151
20 0 156
21 0 16
22 0 161
23 0 166
24 0 171
25 0 176
26 0 181
27 0 186
28 0 191
29 0 196
30 0 201
31 0 21
32 0 211
33 0 216
34 0 221
35 0 226
36 0 227
37 0 231
38 0 236
39 0 26
40 0 3
41 0 31
42 0 41
43 0 46
44 0 5
45 0 51
46 0 56
47 0 6
48 0 61
49 0 66
50 0 7
51 0 71
52 0 76
53 0 81
54 0 86
55 0 9
56 0 91
57 0 96
58 2 102
59 2 105
60 2 107
61 2 11
62 2 110
63 2 111
64 2 112
65 2 115
66 2 116
67 2 117
68 2 123
69 2 124
70 2 125
71 2 13
72 2 132
73 2 138
74 2 15
75 2 151
76 2 153
77 2 156
78 2 157
79 2 158
80 2 161
81 2 163
82 2 165
83 2 167
84 2 169
85 2 171
86 2 172
87 2 175
88 2 176
89 2 179
90 2 182
91 2 184
92 2 188
93 2 19
94 2 191
95 2 193
96 2 196
97 2 199
98 2 202
99 2 204
100 2 212
101 2 215
102 2 229
103 2 231
104 2 29
105 2 51
106 2 65
107 2 66
108 2 67
109 2 70
110 2 71
111 2 72
112 2 74
113 2 75
114 2 76
115 2 79
116 2 83
117 2 84
118 2 94
119 5 103
120 5 11
121 5 121
122 5 13
123 5 138
124 5 140
125 5 15
126 5 152
127 5 156
128 5 161
129 5 163
130 5 165
131 5 167
132 5 169
133 5 17
134 5 179
135 5 182
136 5 184
137 5 186
138 5 188
139 5 191
140 5 193
141 5 196
142 5 199
143 5 202
144 5 204
145 5 206
146 5 210
147 5 212
148 5 219
149 5 222
150 5 226
151 5 234
152 5 236
153 5 56
154 5 59
155 5 63
156 5 8
157 5 87
158 5 90
159 5 92
160 5 95
161 5 99
162 9 150
163 10 10
164 10 102
165 10 137
166 10 150
167 10 160
168 10 178
169 10 18
170 10 181
171 10 187
172 10 190
173 10 195
174 10 198
175 10 201
176 10 211
177 10 27
178 10 94
179 11 10
180 11 102
181 11 119
182 11 137
183 11 145
184 11 150
185 11 160
186 11 178
187 11 18
188 11 181
189 11 187
190 11 190
191 11 195
192 11 198
193 11 201
194 11 211
195 11 217
196 11 220
197 11 233
198 11 27
199 11 54
200 11 57
201 11 86
202 11 89
203 11 94
204 12 207
205 12 5
206 12 96
207 15 103
208 15 11
209 15 13
210 15 138
211 15 140
212 15 15
213 15 161
214 15 163
215 15 165
216 15 167
217 15 169
218 15 17
219 15 179
220 15 182
221 15 184
222 15 186
223 15 188
224 15 191
225 15 193
226 15 196
227 15 199
228 15 202
229 15 204
230 15 206
231 15 210
232 15 212
233 15 234
234 15 236
235 15 8
236 15 87
237 15 90
238 15 92
239 15 95
240 15 99
241 17 0
242 17 105
243 17 107
244 17 110
245 17 115
246 17 123
247 17 124
248 17 125
249 17 158
250 17 172
251 17 176
252 17 215
253 17 229
254 17 231
255 17 65
256 17 66
257 17 67
258 17 70
259 17 71
260 17 72
261 17 75
262 17 79
263 17 84
264 18 111
265 18 116
266 18 132
267 18 51
268 18 76
269 25 101
270 25 102
271 25 103
272 25 104
273 25 107
274 25 109
275 25 111
276 25 115
277 25 116
278 25 117
279 25 122
280 25 125
281 25 13
282 25 130
283 25 136
284 25 138
285 25 14
286 25 140
287 25 142
288 25 144
289 25 147
290 25 149
291 25 15
292 25 151
293 25 153
294 25 169
295 25 17
296 25 171
297 25 175
298 25 177
299 25 178
300 25 179
301 25 182
302 25 184
303 25 186
304 25 188
305 25 19
306 25 190
307 25 192
308 25 193
309 25 198
310 25 20
311 25 200
312 25 201
313 25 202
314 25 204
315 25 206
316 25 208
317 25 21
318 25 210
319 25 213
320 25 215
321 25 218
322 25 23
323 25 234
324 25 25
325 25 26
326 25 33
327 25 36
328 25 38
329 25 41
330 25 43
331 25 45
332 25 46
333 25 47
334 25 50
335 25 57
336 25 63
337 25 65
338 25 70
339 25 71
340 25 72
341 25 78
342 25 80
343 25 83
344 25 89
345 25 90
346 25 91
347 25 92
348 25 95
349 28 10
350 28 112
351 28 121
352 28 123
353 28 138
354 28 140
355 28 142
356 28 144
357 28 147
358 28 149
359 28 151
360 28 153
361 28 155
362 28 159
363 28 161
364 28 164
365 28 166
366 28 169
367 28 171
368 28 18
369 28 183
370 28 187
371 28 193
372 28 197
373 28 24
374 28 30
375 28 8
376 31 190
377 32 136
378 32 177
379 32 181
380 32 190
381 32 193
382 32 198
383 32 82
384 32 94
385 33 111
386 33 122
387 33 129
388 33 136
389 33 139
390 33 146
391 33 168
392 33 17
393 33 181
394 33 191
395 33 23
396 34 111
397 34 119
398 34 122
399 34 129
400 34 136
401 34 139
402 34 146
403 34 160
404 34 163
405 34 168
406 34 17
407 34 176
408 34 181
409 34 190
410 34 195
411 34 200
412 34 204
413 34 211
414 34 224
415 34 23
416 34 28
417 34 32
418 34 45
419 34 74
420 34 9
421 35 156
422 35 5
423 36 0
424 38 10
425 38 112
426 38 123
427 38 140
428 38 142
429 38 144
430 38 147
431 38 149
432 38 151
433 38 153
434 38 155
435 38 159
436 38 161
437 38 164
438 38 166
439 38 169
440 38 171
441 38 179
442 38 18
443 38 192
444 38 211
445 38 24
446 38 37
447 38 43
448 38 8
449 39 130
450 40 104
451 40 107
452 40 109
453 40 115
454 40 125
455 40 14
456 40 15
457 40 20
458 40 21
459 40 213
460 40 215
461 40 218
462 40 26
463 40 33
464 40 39
465 40 45
466 40 50
467 40 63
468 40 65
469 40 70
470 40 71
471 40 72
472 40 83
473 40 92
474 40 95
475 41 101
476 41 103
477 41 116
478 41 234
479 41 40
480 41 46
481 41 57
482 41 89
483 41 91
484 48 101
485 48 102
486 48 108
487 48 109
488 48 115
489 48 116
490 48 131
491 48 147
492 48 148
493 48 16
494 48 162
495 48 164
496 48 166
497 48 168
498 48 170
499 48 172
500 48 174
501 48 175
502 48 177
503 48 18
504 48 180
505 48 182
506 48 185
507 48 187
508 48 189
509 48 191
510 48 193
511 48 195
512 48 197
513 48 200
514 48 202
515 48 205
516 48 206
517 48 208
518 48 211
519 48 213
520 48 215
521 48 217
522 48 219
523 48 221
524 48 223
525 48 229
526 48 236
527 48 30
528 48 54
529 48 56
530 48 69
531 48 75
532 48 76
533 48 77
534 48 78
535 49 132
536 49 149
537 51 11
538 51 135
539 51 154
540 51 160
541 51 162
542 51 164
543 51 166
544 51 168
545 51 170
546 51 172
547 51 181
548 51 185
549 51 187
550 51 189
551 51 191
552 51 193
553 51 195
554 51 197
555 51 201
556 51 205
557 51 207
558 51 209
559 51 21
560 51 211
561 51 213
562 51 215
563 51 217
564 51 219
565 51 221
566 51 223
567 51 226
568 51 24
569 51 26
570 51 44
571 51 52
572 51 54
573 51 56
574 51 61
575 51 67
576 51 7
577 55 179
578 55 199
579 55 68
580 56 161
581 56 179
582 56 186
583 56 199
584 56 206
585 56 208
586 56 210
587 56 29
588 56 53
589 57 119
590 57 12
591 57 134
592 57 136
593 57 161
594 57 179
595 57 186
596 57 199
597 57 20
598 57 206
599 57 208
600 57 210
601 57 225
602 57 23
603 57 29
604 57 5
605 57 53
606 57 58
607 57 80
608 58 151
609 58 40
610 58 58
611 58 8
612 61 11
613 61 135
614 61 154
615 61 160
616 61 162
617 61 164
618 61 166
619 61 168
620 61 170
621 61 172
622 61 187
623 61 189
624 61 191
625 61 193
626 61 195
627 61 197
628 61 207
629 61 209
630 61 21
631 61 211
632 61 213
633 61 215
634 61 217
635 61 219
636 61 221
637 61 223
638 61 226
639 61 24
640 61 26
641 61 54
642 61 56
643 61 61
644 61 67
645 63 101
646 63 109
647 63 115
648 63 175
649 63 177
650 63 229
651 63 69
652 63 78
653 64 100
654 64 108
655 64 116
656 64 132
657 64 146
658 64 149
659 64 236
660 64 60
661 64 66
662 64 75
663 64 77
664 71 11
665 71 114
666 71 115
667 71 119
668 71 120
669 71 123
670 71 124
671 71 125
672 71 130
673 71 132
674 71 134
675 71 137
676 71 141
677 71 143
678 71 145
679 71 146
680 71 147
681 71 149
682 71 15
683 71 151
684 71 152
685 71 16
686 71 167
687 71 169
688 71 171
689 71 182
690 71 183
691 71 186
692 71 187
693 71 191
694 71 192
695 71 195
696 71 196
697 71 197
698 71 20
699 71 202
700 71 204
701 71 207
702 71 209
703 71 21
704 71 212
705 71 222
706 71 224
707 71 226
708 71 228
709 71 230
710 71 232
711 71 235
712 71 24
713 71 25
714 71 26
715 71 31
716 71 33
717 71 36
718 71 38
719 71 61
720 71 62
721 71 72
722 71 73
723 71 75
724 71 87
725 71 88
726 71 89
727 71 9
728 71 90
729 72 0
730 72 117
731 72 18
732 72 189
733 72 76
734 74 135
735 74 140
736 74 142
737 74 145
738 74 151
739 74 153
740 74 157
741 74 161
742 74 172
743 74 176
744 74 180
745 74 208
746 74 212
747 74 215
748 74 219
749 74 222
750 74 224
751 74 226
752 74 228
753 74 230
754 74 232
755 74 36
756 74 38
757 78 106
758 78 137
759 78 143
760 78 149
761 78 154
762 78 157
763 78 161
764 78 173
765 78 176
766 78 180
767 78 206
768 79 134
769 79 137
770 79 141
771 79 143
772 79 149
773 79 152
774 79 155
775 79 159
776 79 171
777 79 174
778 79 178
779 79 206
780 79 221
781 79 35
782 80 106
783 80 134
784 80 137
785 80 141
786 80 143
787 80 149
788 80 152
789 80 163
790 80 171
791 80 206
792 80 213
793 80 221
794 80 35
795 80 40
796 80 5
797 81 137
798 81 216
799 84 135
800 84 140
801 84 142
802 84 153
803 84 156
804 84 160
805 84 172
806 84 175
807 84 179
808 84 219
809 84 222
810 84 224
811 84 226
812 84 228
813 84 230
814 84 232
815 84 36
816 84 38
817 86 114
818 86 120
819 86 123
820 86 130
821 86 132
822 86 147
823 86 15
824 86 183
825 86 186
826 86 192
827 86 195
828 86 202
829 86 204
830 86 21
831 86 235
832 86 24
833 86 31
834 86 33
835 86 61
836 86 87
837 86 89
838 87 118
839 87 124
840 87 138
841 87 139
842 87 19
843 87 190
844 87 196
845 87 25
846 87 60
847 87 71
848 87 77
849 87 90
850 94 104
851 94 106
852 94 109
853 94 111
854 94 114
855 94 116
856 94 119
857 94 120
858 94 124
859 94 125
860 94 128
861 94 129
862 94 130
863 94 135
864 94 137
865 94 139
866 94 141
867 94 142
868 94 146
869 94 148
870 94 149
871 94 151
872 94 156
873 94 159
874 94 160
875 94 163
876 94 164
877 94 168
878 94 169
879 94 172
880 94 173
881 94 174
882 94 179
883 94 181
884 94 184
885 94 185
886 94 189
887 94 190
888 94 194
889 94 195
890 94 200
891 94 21
892 94 213
893 94 219
894 94 226
895 94 23
896 94 39
897 94 41
898 94 44
899 94 45
900 94 49
901 94 50
902 94 53
903 94 54
904 94 55
905 94 60
906 94 62
907 94 67
908 94 68
909 94 72
910 94 73
911 94 76
912 94 77
913 94 78
914 94 83
915 94 85
916 94 88
917 94 89
918 94 93
919 94 94
920 94 97
921 94 98
922 94 99
923 95 122
924 95 166
925 95 187
926 95 47
927 95 70
928 95 91
929 97 109
930 97 11
931 97 111
932 97 114
933 97 116
934 97 141
935 97 145
936 97 148
937 97 15
938 97 151
939 97 153
940 97 211
941 97 214
942 97 216
943 97 231
944 97 234
945 97 238
946 97 26
947 97 29
948 97 31
949 97 35
950 97 39
951 97 41
952 97 65
953 97 7
954 101 11
955 101 139
956 101 142
957 101 146
958 101 149
959 101 15
960 101 8
961 102 108
962 102 113
963 102 13
964 102 139
965 102 142
966 102 146
967 102 149
968 102 202
969 102 213
970 102 38
971 102 9
972 103 108
973 103 113
974 103 139
975 103 142
976 103 146
977 103 149
978 103 152
979 103 17
980 103 213
981 103 215
982 103 229
983 103 232
984 103 25
985 103 28
986 103 33
987 103 38
988 103 5
989 103 64
990 104 142
991 104 208
992 107 10
993 107 109
994 107 111
995 107 114
996 107 116
997 107 14
998 107 145
999 107 153
1000 107 211
1001 107 214
1002 107 216
1003 107 26
1004 107 29
1005 107 31
1006 107 39
1007 107 41
1008 107 65
1009 109 104
1010 109 106
1011 109 119
1012 109 125
1013 109 128
1014 109 135
1015 109 137
1016 109 156
1017 109 160
1018 109 163
1019 109 169
1020 109 172
1021 109 179
1022 109 181
1023 109 184
1024 109 190
1025 109 200
1026 109 219
1027 109 44
1028 109 50
1029 109 53
1030 109 60
1031 109 62
1032 109 67
1033 109 73
1034 109 76
1035 109 83
1036 109 85
1037 109 88
1038 109 94
1039 109 97
1040 110 123
1041 110 129
1042 110 143
1043 110 144
1044 110 167
1045 110 173
1046 110 188
1047 110 194
1048 110 226
1049 110 48
1050 110 54
1051 110 71
1052 110 77
1053 110 92
1054 110 98
1055 117 100
1056 117 11
1057 117 112
1058 117 114
1059 117 118
1060 117 122
1061 117 132
1062 117 134
1063 117 137
1064 117 142
1065 117 15
1066 117 16
1067 117 160
1068 117 162
1069 117 165
1070 117 176
1071 117 178
1072 117 180
1073 117 199
1074 117 202
1075 117 205
1076 117 207
1077 117 226
1078 117 228
1079 117 229
1080 117 231
1081 117 233
1082 117 235
1083 117 27
1084 117 37
1085 117 38
1086 117 39
1087 117 42
1088 117 44
1089 117 46
1090 117 48
1091 117 51
1092 117 52
1093 117 55
1094 117 57
1095 117 66
1096 117 68
1097 117 82
1098 117 83
1099 117 86
1100 117 9
1101 117 90
1102 117 93
1103 117 95
1104 117 97
1105 120 103
1106 120 108
1107 120 119
1108 120 123
1109 120 127
1110 120 140
1111 120 148
1112 120 153
1113 120 157
1114 120 160
1115 120 162
1116 120 165
1117 120 167
1118 120 171
1119 120 176
1120 120 178
1121 120 180
1122 120 184
1123 120 189
1124 120 197
1125 120 199
1126 120 20
1127 120 202
1128 120 213
1129 120 221
1130 120 227
1131 120 233
1132 120 24
1133 120 58
1134 120 60
1135 120 62
1136 120 66
1137 120 68
1138 120 71
1139 120 74
1140 120 78
1141 120 87
1142 120 91
1143 120 93
1144 120 96
1145 120 98
1146 123 116
1147 123 136
1148 123 185
1149 123 191
1150 123 209
1151 123 215
1152 123 223
1153 123 79
1154 123 99
1155 124 116
1156 124 119
1157 124 123
1158 124 136
1159 124 145
1160 124 168
1161 124 185
1162 124 191
1163 124 209
1164 124 215
1165 124 223
1166 124 231
1167 124 99
1168 125 117
1169 125 121
1170 125 136
1171 125 145
1172 125 159
1173 125 164
1174 125 168
1175 125 175
1176 125 185
1177 125 191
1178 125 198
1179 125 201
1180 125 209
1181 125 215
1182 125 223
1183 125 226
1184 125 231
1185 125 26
1186 125 57
1187 125 65
1188 125 86
1189 125 90
1190 125 92
1191 125 95
1192 125 97
1193 125 99
1194 126 0
1195 126 106
1196 126 125
1197 126 128
1198 126 136
1199 126 145
1200 126 152
1201 126 156
1202 126 159
1203 126 164
1204 126 168
1205 126 175
1206 126 18
1207 126 182
1208 126 185
1209 126 192
1210 126 198
1211 126 201
1212 126 209
1213 126 216
1214 126 224
1215 126 226
1216 126 231
1217 126 26
1218 126 5
1219 126 57
1220 126 59
1221 126 65
1222 126 70
1223 126 73
1224 126 86
1225 126 90
1226 126 92
1227 126 95
1228 126 97
1229 126 99
1230 127 136
1231 127 145
1232 127 168
1233 127 185
1234 127 209
1235 127 21
1236 127 75
1237 127 79
1238 127 99
1239 130 118
1240 130 122
1241 130 148
1242 130 153
1243 130 157
1244 130 160
1245 130 162
1246 130 165
1247 130 167
1248 130 171
1249 130 176
1250 130 178
1251 130 180
1252 130 199
1253 130 202
1254 130 227
1255 130 24
1256 130 58
1257 130 60
1258 130 62
1259 130 66
1260 130 68
1261 130 71
1262 130 74
1263 130 78
1264 130 87
1265 130 91
1266 130 93
1267 130 96
1268 130 98
1269 132 112
1270 132 114
1271 132 142
1272 132 16
1273 132 205
1274 132 207
1275 132 229
1276 132 235
1277 132 38
1278 132 39
1279 132 46
1280 132 48
1281 132 51
1282 132 55
1283 133 101
1284 133 102
1285 133 138
1286 133 139
1287 133 146
1288 133 148
1289 133 149
1290 133 150
1291 133 169
1292 133 170
1293 133 172
1294 133 173
1295 133 186
1296 133 187
1297 133 189
1298 133 191
1299 133 195
1300 133 196
1301 133 210
1302 133 211
1303 133 213
1304 133 214
1305 133 218
1306 133 219
1307 133 221
1308 133 223
1309 133 42
1310 133 44
1311 140 104
1312 140 106
1313 140 109
1314 140 111
1315 140 117
1316 140 118
1317 140 13
1318 140 141
1319 140 142
1320 140 143
1321 140 144
1322 140 148
1323 140 15
1324 140 154
1325 140 180
1326 140 181
1327 140 191
1328 140 192
1329 140 194
1330 140 206
1331 140 207
1332 140 208
1333 140 209
1334 140 236
1335 140 25
1336 140 26
1337 140 27
1338 140 29
1339 140 30
1340 140 31
1341 140 33
1342 140 34
1343 140 35
1344 140 37
1345 140 39
1346 140 40
1347 140 41
1348 140 44
1349 140 46
1350 140 49
1351 140 51
1352 140 54
1353 140 64
1354 140 67
1355 140 68
1356 140 72
1357 140 73
1358 140 76
1359 140 77
1360 140 78
1361 140 83
1362 140 85
1363 140 88
1364 140 89
1365 140 93
1366 140 94
1367 140 97
1368 140 98
1369 140 99
1370 141 149
1371 141 195
1372 141 70
1373 141 91
1374 143 109
1375 143 111
1376 143 115
1377 143 18
1378 143 21
1379 143 23
1380 143 233
1381 143 32
1382 143 36
1383 143 44
1384 143 46
1385 143 50
1386 143 54
1387 143 59
1388 143 65
1389 143 8
1390 146 29
1391 146 33
1392 146 37
1393 146 55
1394 146 61
1395 147 225
1396 147 29
1397 147 33
1398 147 37
1399 147 48
1400 147 55
1401 147 61
1402 148 108
1403 148 29
1404 148 33
1405 148 38
1406 148 43
1407 148 48
1408 148 55
1409 148 61
1410 148 64
1411 149 108
1412 149 113
1413 149 120
1414 149 159
1415 149 17
1416 149 20
1417 149 225
1418 149 232
1419 149 29
1420 149 33
1421 149 37
1422 149 43
1423 149 48
1424 149 55
1425 149 62
1426 149 64
1427 149 9
1428 150 5
1429 150 55
1430 153 109
1431 153 111
1432 153 18
1433 153 21
1434 153 23
1435 153 233
1436 153 32
1437 153 36
1438 153 39
1439 153 44
1440 153 46
1441 153 65
1442 153 8
1443 155 104
1444 155 106
1445 155 118
1446 155 141
1447 155 143
1448 155 150
1449 155 154
1450 155 180
1451 155 206
1452 155 208
1453 155 236
1454 155 26
1455 155 27
1456 155 41
1457 155 67
1458 155 73
1459 155 76
1460 155 83
1461 155 85
1462 155 88
1463 155 94
1464 155 97
1465 156 140
1466 156 142
1467 156 151
1468 156 155
1469 156 179
1470 156 190
1471 156 196
1472 156 209
1473 156 56
1474 156 57
1475 156 59
1476 156 60
1477 156 61
1478 156 71
1479 156 77
1480 156 92
1481 156 98
1482 163 104
1483 163 106
1484 163 109
1485 163 112
1486 163 119
1487 163 126
1488 163 135
1489 163 136
1490 163 139
1491 163 145
1492 163 147
1493 163 148
1494 163 150
1495 163 151
1496 163 153
1497 163 158
1498 163 169
1499 163 170
1500 163 172
1501 163 174
1502 163 175
1503 163 178
1504 163 179
1505 163 182
1506 163 184
1507 163 187
1508 163 188
1509 163 192
1510 163 193
1511 163 196
1512 163 197
1513 163 198
1514 163 203
1515 163 205
1516 163 208
1517 163 209
1518 163 21
1519 163 213
1520 163 214
1521 163 217
1522 163 218
1523 163 219
1524 163 224
1525 163 226
1526 163 228
1527 163 229
1528 163 23
1529 163 230
1530 163 232
1531 163 39
1532 163 41
1533 163 45
1534 163 50
1535 163 56
1536 163 58
1537 163 60
1538 163 62
1539 163 65
1540 163 66
1541 163 70
1542 163 71
1543 163 74
1544 163 75
1545 163 76
1546 163 81
1547 163 88
1548 163 89
1549 163 93
1550 163 94
1551 163 97
1552 163 98
1553 163 99
1554 164 190
1555 164 211
1556 164 68
1557 164 91
1558 166 109
1559 166 11
1560 166 125
1561 166 127
1562 166 15
1563 166 154
1564 166 156
1565 166 159
1566 166 165
1567 166 175
1568 166 179
1569 166 182
1570 166 184
1571 166 233
1572 166 235
1573 166 237
1574 166 29
1575 166 37
1576 166 39
1577 166 41
1578 166 46
1579 166 51
1580 166 55
1581 166 58
1582 166 60
1583 166 62
1584 166 7
1585 169 172
1586 169 25
1587 169 31
1588 169 43
1589 170 11
1590 170 128
1591 170 15
1592 170 157
1593 170 162
1594 170 172
1595 170 175
1596 170 179
1597 170 43
1598 170 56
1599 170 8
1600 171 108
1601 171 126
1602 171 13
1603 171 153
1604 171 162
1605 171 173
1606 171 177
1607 171 181
1608 171 232
1609 171 38
1610 171 56
1611 171 59
1612 171 9
1613 172 108
1614 172 124
1615 172 126
1616 172 128
1617 172 153
1618 172 155
1619 172 157
1620 172 162
1621 172 17
1622 172 172
1623 172 181
1624 172 232
1625 172 234
1626 172 38
1627 172 5
1628 172 54
1629 172 56
1630 172 59
1631 172 83
1632 173 162
1633 173 25
1634 176 10
1635 176 109
1636 176 125
1637 176 127
1638 176 14
1639 176 154
1640 176 156
1641 176 165
1642 176 174
1643 176 178
1644 176 182
1645 176 184
1646 176 233
1647 176 235
1648 176 237
1649 176 39
1650 176 41
1651 176 46
1652 176 51
1653 176 55
1654 176 60
1655 176 62
1656 178 104
1657 178 106
1658 178 112
1659 178 136
1660 178 142
1661 178 146
1662 178 151
1663 178 170
1664 178 187
1665 178 193
1666 178 196
1667 178 203
1668 178 205
1669 178 208
1670 178 214
1671 178 217
1672 178 224
1673 178 226
1674 178 229
1675 178 230
1676 178 65
1677 178 71
1678 178 74
1679 178 81
1680 178 88
1681 178 94
1682 178 97
1683 179 119
1684 179 134
1685 179 143
1686 179 147
1687 179 163
1688 179 164
1689 179 166
1690 179 167
1691 179 191
1692 179 197
1693 179 212
1694 179 218
1695 179 29
1696 179 36
1697 179 69
1698 179 75
1699 179 92
1700 179 98
1701 186 103
1702 186 105
1703 186 107
1704 186 109
1705 186 110
1706 186 112
1707 186 113
1708 186 115
1709 186 127
1710 186 130
1711 186 131
1712 186 134
1713 186 135
1714 186 138
1715 186 144
1716 186 146
1717 186 147
1718 186 149
1719 186 150
1720 186 153
1721 186 155
1722 186 156
1723 186 157
1724 186 158
1725 186 16
1726 186 160
1727 186 162
1728 186 163
1729 186 173
1730 186 174
1731 186 175
1732 186 18
1733 186 182
1734 186 186
1735 186 187
1736 186 191
1737 186 192
1738 186 195
1739 186 196
1740 186 197
1741 186 202
1742 186 204
1743 186 207
1744 186 208
1745 186 209
1746 186 216
1747 186 218
1748 186 220
1749 186 222
1750 186 225
1751 186 227
1752 186 23
1753 186 25
1754 186 27
1755 186 28
1756 186 29
1757 186 31
1758 186 33
1759 186 34
1760 186 36
1761 186 37
1762 186 38
1763 186 39
1764 186 40
1765 186 43
1766 186 45
1767 186 47
1768 186 49
1769 186 56
1770 186 61
1771 186 62
1772 186 65
1773 186 68
1774 186 71
1775 186 73
1776 186 75
1777 186 78
1778 186 79
1779 186 82
1780 186 87
1781 186 88
1782 186 92
1783 186 93
1784 186 96
1785 186 97
1786 186 98
1787 187 189
1788 187 90
1789 189 11
1790 189 110
1791 189 116
1792 189 118
1793 189 121
1794 189 123
1795 189 127
1796 189 154
1797 189 162
1798 189 164
1799 189 167
1800 189 171
1801 189 21
1802 189 230
1803 189 233
1804 189 235
1805 189 24
1806 189 33
1807 189 69
1808 189 7
1809 189 72
1810 189 76
1811 189 83
1812 192 107
1813 192 34
1814 193 107
1815 193 110
1816 193 160
1817 193 172
1818 193 206
1819 193 25
1820 193 31
1821 193 34
1822 193 70
1823 193 81
1824 194 108
1825 194 115
1826 194 126
1827 194 153
1828 194 160
1829 194 163
1830 194 23
1831 194 31
1832 194 35
1833 194 68
1834 194 70
1835 194 75
1836 195 107
1837 195 115
1838 195 117
1839 195 12
1840 195 120
1841 195 126
1842 195 129
1843 195 153
1844 195 160
1845 195 163
1846 195 165
1847 195 176
1848 195 20
1849 195 210
1850 195 229
1851 195 23
1852 195 232
1853 195 27
1854 195 31
1855 195 34
1856 195 5
1857 195 68
1858 195 70
1859 195 75
1860 195 81
1861 196 168
1862 196 8
1863 199 109
1864 199 11
1865 199 116
1866 199 118
1867 199 121
1868 199 123
1869 199 127
1870 199 154
1871 199 164
1872 199 171
1873 199 21
1874 199 230
1875 199 233
1876 199 235
1877 199 24
1878 199 36
1879 199 69
1880 199 76
1881 201 103
1882 201 105
1883 201 113
1884 201 130
1885 201 131
1886 201 135
1887 201 140
1888 201 145
1889 201 150
1890 201 156
1891 201 157
1892 201 158
1893 201 182
1894 201 186
1895 201 192
1896 201 195
1897 201 202
1898 201 204
1899 201 220
1900 201 222
1901 201 225
1902 201 227
1903 201 38
1904 201 39
1905 201 40
1906 201 47
1907 201 49
1908 201 62
1909 201 65
1910 201 78
1911 201 87
1912 201 93
1913 201 96
1914 202 133
1915 202 139
1916 202 146
1917 202 190
1918 202 196
1919 202 216
1920 202 218
1921 202 43
1922 202 45
1923 202 56
1924 202 91
1925 202 97
1926 209 108
1927 209 109
1928 209 11
1929 209 110
1930 209 111
1931 209 135
1932 209 136
1933 209 14
1934 209 140
1935 209 141
1936 209 144
1937 209 145
1938 209 146
1939 209 15
1940 209 151
1941 209 153
1942 209 156
1943 209 158
1944 209 160
1945 209 162
1946 209 169
1947 209 17
1948 209 184
1949 209 185
1950 209 189
1951 209 190
1952 209 193
1953 209 194
1954 209 195
1955 209 200
1956 209 202
1957 209 205
1958 209 207
1959 209 209
1960 209 211
1961 209 223
1962 209 235
1963 209 24
1964 209 25
1965 209 26
1966 209 27
1967 209 29
1968 209 30
1969 209 31
1970 209 34
1971 209 36
1972 209 38
1973 209 41
1974 209 42
1975 209 46
1976 209 47
1977 209 50
1978 209 51
1979 209 52
1980 209 57
1981 209 59
1982 209 82
1983 209 83
1984 209 9
1985 209 93
1986 209 94
1987 209 96
1988 210 138
1989 210 187
1990 210 44
1991 210 97
1992 212 174
1993 212 177
1994 212 18
1995 212 181
1996 212 206
1997 212 210
1998 212 22
1999 212 223
2000 212 225
2001 212 227
2002 212 230
2003 212 232
2004 212 35
2005 212 39
2006 216 0
2007 216 127
2008 216 204
2009 216 33
2010 217 17
2011 217 204
2012 217 222
2013 217 33
2014 217 38
2015 218 127
2016 218 17
2017 218 172
2018 218 175
2019 218 204
2020 218 217
2021 218 222
2022 218 226
2023 218 229
2024 218 33
2025 218 38
2026 218 5
2027 218 61
2028 219 19
2029 222 18
2030 222 22
2031 222 223
2032 222 225
2033 222 227
2034 222 230
2035 222 232
2036 222 39
2037 223 108
2038 224 110
2039 224 135
2040 224 141
2041 224 144
2042 224 15
2043 224 151
2044 224 153
2045 224 160
2046 224 162
2047 224 184
2048 224 190
2049 224 193
2050 224 200
2051 224 202
2052 224 235
2053 224 25
2054 224 26
2055 224 27
2056 224 30
2057 224 31
2058 224 41
2059 224 47
2060 224 50
2061 224 57
2062 224 59
2063 224 82
2064 225 111
2065 225 139
2066 225 145
2067 225 156
2068 225 158
2069 225 169
2070 225 188
2071 225 194
2072 225 45
2073 225 51
2074 225 81
2075 225 92
2076 225 98
2077 232 101
2078 232 102
2079 232 103
2080 232 108
2081 232 11
2082 232 110
2083 232 113
2084 232 114
2085 232 118
2086 232 119
2087 232 122
2088 232 123
2089 232 124
2090 232 129
2091 232 135
2092 232 136
2093 232 138
2094 232 140
2095 232 141
2096 232 142
2097 232 144
2098 232 146
2099 232 147
2100 232 149
2101 232 15
2102 232 151
2103 232 153
2104 232 154
2105 232 155
2106 232 158
2107 232 160
2108 232 162
2109 232 164
2110 232 167
2111 232 169
2112 232 17
2113 232 171
2114 232 173
2115 232 176
2116 232 177
2117 232 18
2118 232 180
2119 232 182
2120 232 184
2121 232 186
2122 232 189
2123 232 19
2124 232 191
2125 232 194
2126 232 195
2127 232 197
2128 232 199
2129 232 201
2130 232 207
2131 232 209
2132 232 214
2133 232 216
2134 232 34
2135 232 36
2136 232 38
2137 232 40
2138 232 43
2139 232 45
2140 232 47
2141 232 50
2142 232 51
2143 232 55
2144 232 56
2145 232 59
2146 232 60
2147 232 61
2148 232 66
2149 232 68
2150 232 71
2151 232 72
2152 232 76
2153 232 77
2154 232 80
2155 232 81
2156 232 82
2157 232 87
2158 232 89
2159 232 9
2160 232 92
2161 232 93
2162 232 97
2163 232 98
2164 233 116
2165 233 53
2166 233 74
2167 233 95
2168 235 146
2169 235 148
2170 235 150
2171 235 190
2172 235 194
2173 235 214
2174 235 216
2175 235 221
2176 235 226
2177 235 23
2178 235 232
2179 235 236
2180 235 27
2181 235 31
2182 235 35
2183 235 39
2184 235 41
2185 235 44
2186 235 48
2187 238 218
2188 239 138
2189 239 144
2190 239 15
2191 239 153
2192 239 188
2193 239 229
2194 239 232
2195 239 236
2196 239 24
2197 239 27
2198 239 31
2199 239 33
2200 239 42
2201 240 144
2202 240 147
2203 240 149
2204 240 188
2205 240 213
2206 240 230
2207 240 234
2208 240 25
2209 240 29
2210 240 33
2211 240 38
2212 240 40
2213 240 42
2214 240 47
2215 241 131
2216 241 140
2217 241 144
2218 241 147
2219 241 149
2220 241 152
2221 241 17
2222 241 180
2223 241 187
2224 241 188
2225 241 195
2226 241 202
2227 241 203
2228 241 21
2229 241 213
2230 241 33
2231 241 38
2232 241 40
2233 241 42
2234 241 47
2235 241 5
2236 243 0
2237 245 148
2238 245 150
2239 245 155
2240 245 187
2241 245 202
2242 245 214
2243 245 216
2244 245 221
2245 245 226
2246 245 231
2247 245 235
2248 245 26
2249 245 30
2250 245 39
2251 245 41
2252 245 48
2253 247 101
2254 247 108
2255 247 110
2256 247 113
2257 247 119
2258 247 122
2259 247 129
2260 247 136
2261 247 162
2262 247 164
2263 247 171
2264 247 173
2265 247 176
2266 247 50
2267 247 56
2268 247 59
2269 247 66
2270 247 68
2271 247 71
2272 247 77
2273 247 80
2274 247 87
2275 247 89
2276 247 92
2277 247 98
2278 248 102
2279 248 117
2280 248 123
2281 248 158
2282 248 160
2283 248 167
2284 248 169
2285 248 54
2286 248 60
2287 248 75
2288 248 81
2289 248 96
2290 252 106
2291 252 121
2292 252 122
2293 252 129
2294 252 136
2295 252 151
2296 252 16
2297 252 166
2298 252 181
2299 252 196
2300 252 211
2301 252 226
2302 252 227
2303 252 31
2304 252 46
2305 252 61
2306 252 76
2307 252 90
2308 252 91
EOF
